NAME: DistanceMatrix
TYPE: TSP 
COMMENT: Symetric matrix TSP 
DIMENSION: 12
EDGE_WEIGHT_TYPE: EXPLICIT
EDGE_WEIGHT_FORMAT: UPPER_ROW
EDGE_WEIGHT_SECTION
	12	7	17	13	11	8	11	13	11	6	0
	11	19	18	16	11	16	17	15	13	0
	19	9	8	5	7	8	6	5	0
	21	20	16	19	20	20	17	0
	4	9	4	3	4	10	0
	8	2	3	2	8	0
	8	9	7	5	0
	3	1	8	0
	4	9	0
	8	0
	0
EOF 
